
;this file is automatically generated: Thu Dec 26 17:44:16 GMT 2019

;declarations generated

(declare-fun oclExcludes ( Int Int) Bool)
(declare-fun obj_381be241_943b_4af2_a697_2e18927dc9a4 ( Int) Int)
(declare-fun Cardinality ( Int) Int)
(declare-fun type_1415c162_a668_48b9_9dda_8d7c34c79820_Person ( Int) Bool)
(declare-fun student_year ( Int) Int)
(declare-fun rel_41119e9f_432a_4f55_b727_6a39f7c7bbae_study ( Int Int) Bool)
(declare-fun oclSelect ( Int Bool) Int)
(declare-fun module_year ( Int) Int)
(declare-fun type_1415c162_a668_48b9_9dda_8d7c34c79820_Student ( Int) Bool)
(declare-fun container_ ( Int) Int)
(declare-fun oclIncludes ( Int Int) Bool)
(declare-fun type_1415c162_a668_48b9_9dda_8d7c34c79820_Module ( Int) Bool)
(declare-fun ObjAt ( Int Int) Int)

;formula(s) generated
(assert (! (and (forall ((v Int)) (=> (and ( type_1415c162_a668_48b9_9dda_8d7c34c79820_Student v )  ( type_1415c162_a668_48b9_9dda_8d7c34c79820_Person v ) ) (>= ( student_year ( obj_381be241_943b_4af2_a697_2e18927dc9a4 v )  )  1))) (forall ((v Int)) (=> (and ( type_1415c162_a668_48b9_9dda_8d7c34c79820_Student v )  ( type_1415c162_a668_48b9_9dda_8d7c34c79820_Person v ) ) (<= ( student_year ( obj_381be241_943b_4af2_a697_2e18927dc9a4 v )  )  6)))):named l0))
(assert (! (and (exists ((s Int)) (and (and ( type_1415c162_a668_48b9_9dda_8d7c34c79820_Student s )  ( type_1415c162_a668_48b9_9dda_8d7c34c79820_Person s ) ) (= ( student_year ( obj_381be241_943b_4af2_a697_2e18927dc9a4 s )  )  6))) (exists ((s Int)) (and (and ( type_1415c162_a668_48b9_9dda_8d7c34c79820_Student s )  ( type_1415c162_a668_48b9_9dda_8d7c34c79820_Person s ) ) (< ( student_year ( obj_381be241_943b_4af2_a697_2e18927dc9a4 s )  )  6)))):named l1))
(assert (! (forall ((s1 Int)) (=> (and ( type_1415c162_a668_48b9_9dda_8d7c34c79820_Student s1 )  ( type_1415c162_a668_48b9_9dda_8d7c34c79820_Person s1 ) ) (forall ((m1 Int)) (=> (and ( type_1415c162_a668_48b9_9dda_8d7c34c79820_Module m1 )  ( rel_41119e9f_432a_4f55_b727_6a39f7c7bbae_study ( obj_381be241_943b_4af2_a697_2e18927dc9a4 s1 )   ( obj_381be241_943b_4af2_a697_2e18927dc9a4 m1 )  ) ) (= ( student_year ( obj_381be241_943b_4af2_a697_2e18927dc9a4 s1 )  )  ( module_year ( obj_381be241_943b_4af2_a697_2e18927dc9a4 m1 )  ) ))))):named l2))
(assert (! (and (forall ((v Int)) (=> ( type_1415c162_a668_48b9_9dda_8d7c34c79820_Module v )  (>= ( module_year ( obj_381be241_943b_4af2_a697_2e18927dc9a4 v )  )  1))) (forall ((v Int)) (=> ( type_1415c162_a668_48b9_9dda_8d7c34c79820_Module v )  (<= ( module_year ( obj_381be241_943b_4af2_a697_2e18927dc9a4 v )  )  5)))):named l3))
(assert (! (forall ((s Int)) (=> (and ( type_1415c162_a668_48b9_9dda_8d7c34c79820_Student s )  ( type_1415c162_a668_48b9_9dda_8d7c34c79820_Person s ) ) (exists ((v Int)) (and ( type_1415c162_a668_48b9_9dda_8d7c34c79820_Module v )  ( rel_41119e9f_432a_4f55_b727_6a39f7c7bbae_study ( obj_381be241_943b_4af2_a697_2e18927dc9a4 s )   ( obj_381be241_943b_4af2_a697_2e18927dc9a4 v )  ) )))):named l4))
(assert (exists ((o Int)) (and ( type_1415c162_a668_48b9_9dda_8d7c34c79820_Student ( obj_381be241_943b_4af2_a697_2e18927dc9a4 o )  )  ( type_1415c162_a668_48b9_9dda_8d7c34c79820_Person ( obj_381be241_943b_4af2_a697_2e18927dc9a4 o )  ) )))
(assert (exists ((o Int)) (and (and ( type_1415c162_a668_48b9_9dda_8d7c34c79820_Student ( obj_381be241_943b_4af2_a697_2e18927dc9a4 o )  )  ( type_1415c162_a668_48b9_9dda_8d7c34c79820_Person ( obj_381be241_943b_4af2_a697_2e18927dc9a4 o )  ) ) ( type_1415c162_a668_48b9_9dda_8d7c34c79820_Module ( obj_381be241_943b_4af2_a697_2e18927dc9a4 o )  ) )))

 ;end of formula 